6   6   3
3   2   1   18   2   18   2   3   28   4   28   2   5   16   6   16   
3   2   1   16   2   16   2   3   24   4   24   2   5   25   6   25   
3   2   1   19   2   19   2   3   24   4   24   2   5   23   6   23   
3   2   1   15   2   15   2   3   24   4   24   2   5   20   6   20   
3   2   1   26   2   26   2   3   17   4   17   2   5   14   6   14   
3   2   1   30   2   30   2   3   10   4   10   2   5   18   6   18   
